







































































































53 66 31 27 23 22 45 
58 60 73 55 0 75 14 
33 43 38 16 62 61 17 20 
76 6 21 37 59 4 48 
74 57 32 12 64 50 
30 2 47 7 68 72 8 25 
65 15 35 29 10 40 3 
46 5 36 54 13 34 1 
28 41 9 69 39 63 49 44 
24 67 70 52 18 26 51 
19 71 42 56 11 
